# Solution for model ./pattern/JoltikBC128_11r
# Objective value = 120.012001
uDW[-1,0] 1
uDW[-1,1] 1
uDW[-1,2] 1
uDW[-1,3] 1
uDW[-1,4] 1
uDW[-1,5] 1
uDW[-1,6] 1
uDW[-1,7] 1
uDW[-1,8] 1
uDW[-1,9] 1
uDW[-1,10] 1
uDW[-1,11] 1
uDW[-1,12] 0
uDW[-1,13] 1
uDW[-1,14] 0
uDW[-1,15] 1
uDW[0,0] 1
uDW[0,1] 1
uDW[0,2] 1
uDW[0,3] 1
uDW[0,4] 0
uDW[0,5] 0
uDW[0,6] 0
uDW[0,7] 0
uDW[0,8] 1
uDW[0,9] 1
uDW[0,10] 1
uDW[0,11] 1
uDW[0,12] 1
uDW[0,13] 1
uDW[0,14] 0
uDW[0,15] 1
uDW[1,0] 1
uDW[1,1] 0
uDW[1,2] 1
uDW[1,3] 1
uDW[1,4] 0
uDW[1,5] 1
uDW[1,6] 1
uDW[1,7] 1
uDW[1,8] 0
uDW[1,9] 0
uDW[1,10] 0
uDW[1,11] 0
uDW[1,12] 1
uDW[1,13] 1
uDW[1,14] 0
uDW[1,15] 1
uDW[2,0] 0
uDW[2,1] 0
uDW[2,2] 0
uDW[2,3] 0
uDW[2,4] 0
uDW[2,5] 0
uDW[2,6] 0
uDW[2,7] 0
uDW[2,8] 0
uDW[2,9] 0
uDW[2,10] 0
uDW[2,11] 0
uDW[2,12] 0
uDW[2,13] 0
uDW[2,14] 0
uDW[2,15] 0
uDW[3,0] 0
uDW[3,1] 0
uDW[3,2] 0
uDW[3,3] 0
uDW[3,4] 0
uDW[3,5] 0
uDW[3,6] 0
uDW[3,7] 0
uDW[3,8] 0
uDW[3,9] 0
uDW[3,10] 0
uDW[3,11] 0
uDW[3,12] 0
uDW[3,13] 0
uDW[3,14] 0
uDW[3,15] 0
uDW[4,0] 1
uDW[4,1] 1
uDW[4,2] 1
uDW[4,3] 1
uDW[4,4] 1
uDW[4,5] 1
uDW[4,6] 1
uDW[4,7] 1
uDW[4,8] 0
uDW[4,9] 0
uDW[4,10] 0
uDW[4,11] 0
uDW[4,12] 1
uDW[4,13] 1
uDW[4,14] 1
uDW[4,15] 1
udw[-1,0] 1
udw[-1,1] 1
udw[-1,2] 1
udw[-1,3] 0
udw[-1,4] 0
udw[-1,5] 1
udw[-1,6] 1
udw[-1,7] 1
udw[-1,8] 1
udw[-1,9] 0
udw[-1,10] 1
udw[-1,11] 0
udw[-1,12] 0
udw[-1,13] 1
udw[-1,14] 0
udw[-1,15] 1
udw[0,0] 1
udw[0,1] 1
udw[0,2] 0
udw[0,3] 1
udw[0,4] 0
udw[0,5] 0
udw[0,6] 0
udw[0,7] 0
udw[0,8] 0
udw[0,9] 1
udw[0,10] 1
udw[0,11] 1
udw[0,12] 0
udw[0,13] 0
udw[0,14] 0
udw[0,15] 0
udw[1,0] 0
udw[1,1] 0
udw[1,2] 0
udw[1,3] 0
udw[1,4] 0
udw[1,5] 0
udw[1,6] 0
udw[1,7] 0
udw[1,8] 0
udw[1,9] 0
udw[1,10] 0
udw[1,11] 0
udw[1,12] 0
udw[1,13] 0
udw[1,14] 0
udw[1,15] 0
udw[2,0] 0
udw[2,1] 0
udw[2,2] 0
udw[2,3] 0
udw[2,4] 0
udw[2,5] 0
udw[2,6] 0
udw[2,7] 0
udw[2,8] 0
udw[2,9] 0
udw[2,10] 0
udw[2,11] 0
udw[2,12] 0
udw[2,13] 0
udw[2,14] 0
udw[2,15] 0
udw[3,0] 0
udw[3,1] 0
udw[3,2] 0
udw[3,3] 0
udw[3,4] 0
udw[3,5] 0
udw[3,6] 0
udw[3,7] 0
udw[3,8] 0
udw[3,9] 0
udw[3,10] 0
udw[3,11] 0
udw[3,12] 0
udw[3,13] 0
udw[3,14] 0
udw[3,15] 0
udw[4,0] 1
udw[4,1] 1
udw[4,2] 1
udw[4,3] 1
udw[4,4] 1
udw[4,5] 1
udw[4,6] 1
udw[4,7] 1
udw[4,8] 0
udw[4,9] 0
udw[4,10] 0
udw[4,11] 0
udw[4,12] 1
udw[4,13] 1
udw[4,14] 1
udw[4,15] 1
uDX[0,0] 1
uDX[0,1] 1
uDX[0,2] 1
uDX[0,3] 0
uDX[0,4] 0
uDX[0,5] 1
uDX[0,6] 1
uDX[0,7] 1
uDX[0,8] 1
uDX[0,9] 0
uDX[0,10] 1
uDX[0,11] 0
uDX[0,12] 0
uDX[0,13] 1
uDX[0,14] 0
uDX[0,15] 1
uDX[1,0] 1
uDX[1,1] 1
uDX[1,2] 0
uDX[1,3] 1
uDX[1,4] 0
uDX[1,5] 0
uDX[1,6] 0
uDX[1,7] 0
uDX[1,8] 0
uDX[1,9] 1
uDX[1,10] 1
uDX[1,11] 1
uDX[1,12] 0
uDX[1,13] 0
uDX[1,14] 0
uDX[1,15] 0
uDX[2,0] 0
uDX[2,1] 0
uDX[2,2] 0
uDX[2,3] 0
uDX[2,4] 0
uDX[2,5] 0
uDX[2,6] 0
uDX[2,7] 0
uDX[2,8] 0
uDX[2,9] 0
uDX[2,10] 0
uDX[2,11] 0
uDX[2,12] 0
uDX[2,13] 0
uDX[2,14] 0
uDX[2,15] 0
uDX[3,0] 0
uDX[3,1] 0
uDX[3,2] 0
uDX[3,3] 0
uDX[3,4] 0
uDX[3,5] 0
uDX[3,6] 0
uDX[3,7] 0
uDX[3,8] 0
uDX[3,9] 0
uDX[3,10] 0
uDX[3,11] 0
uDX[3,12] 0
uDX[3,13] 0
uDX[3,14] 0
uDX[3,15] 0
uDX[4,0] 1
uDX[4,1] 1
uDX[4,2] 0
uDX[4,3] 1
uDX[4,4] 0
uDX[4,5] 1
uDX[4,6] 0
uDX[4,7] 0
uDX[4,8] 0
uDX[4,9] 1
uDX[4,10] 1
uDX[4,11] 1
uDX[4,12] 1
uDX[4,13] 0
uDX[4,14] 1
uDX[4,15] 0
uDX[5,0] 1
uDX[5,1] 1
uDX[5,2] 1
uDX[5,3] 1
uDX[5,4] 1
uDX[5,5] 1
uDX[5,6] 1
uDX[5,7] 1
uDX[5,8] 1
uDX[5,9] 1
uDX[5,10] 1
uDX[5,11] 0
uDX[5,12] 1
uDX[5,13] 1
uDX[5,14] 1
uDX[5,15] 1
udx[0,0] 1
udx[0,1] 1
udx[0,2] 1
udx[0,3] 0
udx[0,4] 0
udx[0,5] 1
udx[0,6] 1
udx[0,7] 1
udx[0,8] 1
udx[0,9] 0
udx[0,10] 1
udx[0,11] 0
udx[0,12] 0
udx[0,13] 1
udx[0,14] 0
udx[0,15] 1
udx[1,0] 1
udx[1,1] 1
udx[1,2] 0
udx[1,3] 1
udx[1,4] 0
udx[1,5] 0
udx[1,6] 0
udx[1,7] 0
udx[1,8] 0
udx[1,9] 1
udx[1,10] 1
udx[1,11] 1
udx[1,12] 0
udx[1,13] 0
udx[1,14] 0
udx[1,15] 0
udx[2,0] 0
udx[2,1] 0
udx[2,2] 0
udx[2,3] 0
udx[2,4] 0
udx[2,5] 0
udx[2,6] 0
udx[2,7] 0
udx[2,8] 0
udx[2,9] 0
udx[2,10] 0
udx[2,11] 0
udx[2,12] 0
udx[2,13] 0
udx[2,14] 0
udx[2,15] 0
udx[3,0] 0
udx[3,1] 0
udx[3,2] 0
udx[3,3] 0
udx[3,4] 0
udx[3,5] 0
udx[3,6] 0
udx[3,7] 0
udx[3,8] 0
udx[3,9] 0
udx[3,10] 0
udx[3,11] 0
udx[3,12] 0
udx[3,13] 0
udx[3,14] 0
udx[3,15] 0
udx[4,0] 0
udx[4,1] 0
udx[4,2] 0
udx[4,3] 0
udx[4,4] 0
udx[4,5] 0
udx[4,6] 0
udx[4,7] 0
udx[4,8] 0
udx[4,9] 0
udx[4,10] 0
udx[4,11] 0
udx[4,12] 0
udx[4,13] 0
udx[4,14] 0
udx[4,15] 0
udx[5,0] 1
udx[5,1] 1
udx[5,2] 1
udx[5,3] 1
udx[5,4] 1
udx[5,5] 1
udx[5,6] 1
udx[5,7] 1
udx[5,8] 0
udx[5,9] 0
udx[5,10] 0
udx[5,11] 0
udx[5,12] 1
udx[5,13] 1
udx[5,14] 1
udx[5,15] 1
uDY[0,0] 1
uDY[0,1] 1
uDY[0,2] 1
uDY[0,3] 0
uDY[0,4] 0
uDY[0,5] 1
uDY[0,6] 1
uDY[0,7] 1
uDY[0,8] 1
uDY[0,9] 0
uDY[0,10] 1
uDY[0,11] 0
uDY[0,12] 0
uDY[0,13] 1
uDY[0,14] 0
uDY[0,15] 1
uDY[1,0] 1
uDY[1,1] 1
uDY[1,2] 0
uDY[1,3] 1
uDY[1,4] 0
uDY[1,5] 0
uDY[1,6] 0
uDY[1,7] 0
uDY[1,8] 0
uDY[1,9] 1
uDY[1,10] 1
uDY[1,11] 1
uDY[1,12] 0
uDY[1,13] 0
uDY[1,14] 0
uDY[1,15] 0
uDY[2,0] 0
uDY[2,1] 0
uDY[2,2] 0
uDY[2,3] 0
uDY[2,4] 0
uDY[2,5] 0
uDY[2,6] 0
uDY[2,7] 0
uDY[2,8] 0
uDY[2,9] 0
uDY[2,10] 0
uDY[2,11] 0
uDY[2,12] 0
uDY[2,13] 0
uDY[2,14] 0
uDY[2,15] 0
uDY[3,0] 0
uDY[3,1] 0
uDY[3,2] 0
uDY[3,3] 0
uDY[3,4] 0
uDY[3,5] 0
uDY[3,6] 0
uDY[3,7] 0
uDY[3,8] 0
uDY[3,9] 0
uDY[3,10] 0
uDY[3,11] 0
uDY[3,12] 0
uDY[3,13] 0
uDY[3,14] 0
uDY[3,15] 0
uDY[4,0] 1
uDY[4,1] 1
uDY[4,2] 0
uDY[4,3] 1
uDY[4,4] 0
uDY[4,5] 1
uDY[4,6] 0
uDY[4,7] 0
uDY[4,8] 0
uDY[4,9] 1
uDY[4,10] 1
uDY[4,11] 1
uDY[4,12] 1
uDY[4,13] 0
uDY[4,14] 1
uDY[4,15] 0
udy[0,0] 1
udy[0,1] 0
udy[0,2] 1
udy[0,3] 0
udy[0,4] 0
udy[0,5] 1
udy[0,6] 0
udy[0,7] 1
udy[0,8] 1
udy[0,9] 0
udy[0,10] 1
udy[0,11] 0
udy[0,12] 0
udy[0,13] 1
udy[0,14] 0
udy[0,15] 1
udy[1,0] 0
udy[1,1] 0
udy[1,2] 0
udy[1,3] 0
udy[1,4] 0
udy[1,5] 0
udy[1,6] 0
udy[1,7] 0
udy[1,8] 0
udy[1,9] 0
udy[1,10] 0
udy[1,11] 0
udy[1,12] 0
udy[1,13] 0
udy[1,14] 0
udy[1,15] 0
udy[2,0] 0
udy[2,1] 0
udy[2,2] 0
udy[2,3] 0
udy[2,4] 0
udy[2,5] 0
udy[2,6] 0
udy[2,7] 0
udy[2,8] 0
udy[2,9] 0
udy[2,10] 0
udy[2,11] 0
udy[2,12] 0
udy[2,13] 0
udy[2,14] 0
udy[2,15] 0
udy[3,0] 0
udy[3,1] 0
udy[3,2] 0
udy[3,3] 0
udy[3,4] 0
udy[3,5] 0
udy[3,6] 0
udy[3,7] 0
udy[3,8] 0
udy[3,9] 0
udy[3,10] 0
udy[3,11] 0
udy[3,12] 0
udy[3,13] 0
udy[3,14] 0
udy[3,15] 0
udy[4,0] 1
udy[4,1] 1
udy[4,2] 0
udy[4,3] 1
udy[4,4] 0
udy[4,5] 1
udy[4,6] 0
udy[4,7] 0
udy[4,8] 0
udy[4,9] 1
udy[4,10] 1
udy[4,11] 1
udy[4,12] 1
udy[4,13] 0
udy[4,14] 1
udy[4,15] 0
uDZ[0,0] 1
uDZ[0,1] 1
uDZ[0,2] 1
uDZ[0,3] 1
uDZ[0,4] 0
uDZ[0,5] 0
uDZ[0,6] 0
uDZ[0,7] 0
uDZ[0,8] 1
uDZ[0,9] 1
uDZ[0,10] 1
uDZ[0,11] 1
uDZ[0,12] 0
uDZ[0,13] 1
uDZ[0,14] 1
uDZ[0,15] 0
uDZ[1,0] 1
uDZ[1,1] 0
uDZ[1,2] 1
uDZ[1,3] 0
uDZ[1,4] 0
uDZ[1,5] 1
uDZ[1,6] 0
uDZ[1,7] 1
uDZ[1,8] 0
uDZ[1,9] 0
uDZ[1,10] 0
uDZ[1,11] 0
uDZ[1,12] 0
uDZ[1,13] 1
uDZ[1,14] 0
uDZ[1,15] 1
uDZ[2,0] 0
uDZ[2,1] 0
uDZ[2,2] 0
uDZ[2,3] 0
uDZ[2,4] 0
uDZ[2,5] 0
uDZ[2,6] 0
uDZ[2,7] 0
uDZ[2,8] 0
uDZ[2,9] 0
uDZ[2,10] 0
uDZ[2,11] 0
uDZ[2,12] 0
uDZ[2,13] 0
uDZ[2,14] 0
uDZ[2,15] 0
uDZ[3,0] 0
uDZ[3,1] 0
uDZ[3,2] 0
uDZ[3,3] 0
uDZ[3,4] 0
uDZ[3,5] 0
uDZ[3,6] 0
uDZ[3,7] 0
uDZ[3,8] 0
uDZ[3,9] 0
uDZ[3,10] 0
uDZ[3,11] 0
uDZ[3,12] 0
uDZ[3,13] 0
uDZ[3,14] 0
uDZ[3,15] 0
uDZ[4,0] 1
uDZ[4,1] 1
uDZ[4,2] 1
uDZ[4,3] 0
uDZ[4,4] 0
uDZ[4,5] 1
uDZ[4,6] 1
uDZ[4,7] 1
uDZ[4,8] 0
uDZ[4,9] 0
uDZ[4,10] 0
uDZ[4,11] 0
uDZ[4,12] 1
uDZ[4,13] 1
uDZ[4,14] 0
uDZ[4,15] 1
udz[0,0] 1
udz[0,1] 1
udz[0,2] 1
udz[0,3] 1
udz[0,4] 0
udz[0,5] 0
udz[0,6] 0
udz[0,7] 0
udz[0,8] 1
udz[0,9] 1
udz[0,10] 1
udz[0,11] 1
udz[0,12] 0
udz[0,13] 0
udz[0,14] 0
udz[0,15] 0
udz[1,0] 0
udz[1,1] 0
udz[1,2] 0
udz[1,3] 0
udz[1,4] 0
udz[1,5] 0
udz[1,6] 0
udz[1,7] 0
udz[1,8] 0
udz[1,9] 0
udz[1,10] 0
udz[1,11] 0
udz[1,12] 0
udz[1,13] 0
udz[1,14] 0
udz[1,15] 0
udz[2,0] 0
udz[2,1] 0
udz[2,2] 0
udz[2,3] 0
udz[2,4] 0
udz[2,5] 0
udz[2,6] 0
udz[2,7] 0
udz[2,8] 0
udz[2,9] 0
udz[2,10] 0
udz[2,11] 0
udz[2,12] 0
udz[2,13] 0
udz[2,14] 0
udz[2,15] 0
udz[3,0] 0
udz[3,1] 0
udz[3,2] 0
udz[3,3] 0
udz[3,4] 0
udz[3,5] 0
udz[3,6] 0
udz[3,7] 0
udz[3,8] 0
udz[3,9] 0
udz[3,10] 0
udz[3,11] 0
udz[3,12] 0
udz[3,13] 0
udz[3,14] 0
udz[3,15] 0
udz[4,0] 1
udz[4,1] 1
udz[4,2] 1
udz[4,3] 0
udz[4,4] 0
udz[4,5] 1
udz[4,6] 1
udz[4,7] 1
udz[4,8] 0
udz[4,9] 0
udz[4,10] 0
udz[4,11] 0
udz[4,12] 1
udz[4,13] 1
udz[4,14] 0
udz[4,15] 1
ustk[0,0] 0
ustk[0,1] 1
ustk[0,2] 1
ustk[0,3] 1
ustk[0,4] 1
ustk[0,5] 0
ustk[0,6] 1
ustk[0,7] 0
ustk[0,8] 1
ustk[0,9] 1
ustk[0,10] 0
ustk[0,11] 1
ustk[0,12] 0
ustk[0,13] 1
ustk[0,14] 0
ustk[0,15] 0
ustk[1,0] 1
ustk[1,1] 1
ustk[1,2] 1
ustk[1,3] 0
ustk[1,4] 0
ustk[1,5] 0
ustk[1,6] 0
ustk[1,7] 0
ustk[1,8] 1
ustk[1,9] 0
ustk[1,10] 1
ustk[1,11] 1
ustk[1,12] 1
ustk[1,13] 1
ustk[1,14] 0
ustk[1,15] 1
ustk[2,0] 1
ustk[2,1] 0
ustk[2,2] 1
ustk[2,3] 1
ustk[2,4] 0
ustk[2,5] 1
ustk[2,6] 1
ustk[2,7] 1
ustk[2,8] 0
ustk[2,9] 0
ustk[2,10] 0
ustk[2,11] 0
ustk[2,12] 1
ustk[2,13] 1
ustk[2,14] 0
ustk[2,15] 1
ustk[3,0] 0
ustk[3,1] 0
ustk[3,2] 0
ustk[3,3] 0
ustk[3,4] 0
ustk[3,5] 0
ustk[3,6] 0
ustk[3,7] 0
ustk[3,8] 0
ustk[3,9] 0
ustk[3,10] 0
ustk[3,11] 0
ustk[3,12] 0
ustk[3,13] 0
ustk[3,14] 0
ustk[3,15] 0
ustk[4,0] 1
ustk[4,1] 1
ustk[4,2] 0
ustk[4,3] 1
ustk[4,4] 0
ustk[4,5] 1
ustk[4,6] 0
ustk[4,7] 0
ustk[4,8] 0
ustk[4,9] 1
ustk[4,10] 1
ustk[4,11] 1
ustk[4,12] 1
ustk[4,13] 0
ustk[4,14] 1
ustk[4,15] 0
ustk[5,0] 1
ustk[5,1] 0
ustk[5,2] 1
ustk[5,3] 1
ustk[5,4] 1
ustk[5,5] 1
ustk[5,6] 0
ustk[5,7] 1
ustk[5,8] 1
ustk[5,9] 1
ustk[5,10] 1
ustk[5,11] 0
ustk[5,12] 0
ustk[5,13] 0
ustk[5,14] 0
ustk[5,15] 0
ustk[6,0] 0
ustk[6,1] 0
ustk[6,2] 0
ustk[6,3] 0
ustk[6,4] 1
ustk[6,5] 1
ustk[6,6] 0
ustk[6,7] 1
ustk[6,8] 1
ustk[6,9] 0
ustk[6,10] 1
ustk[6,11] 1
ustk[6,12] 0
ustk[6,13] 1
ustk[6,14] 1
ustk[6,15] 1
ucan[0,0] 0
ucan[0,1] 0
ucan[0,2] 0
ucan[0,3] 1
ucan[0,4] 1
ucan[0,5] 0
ucan[0,6] 0
ucan[0,7] 0
ucan[0,8] 0
ucan[0,9] 1
ucan[0,10] 0
ucan[0,11] 1
ucan[0,12] 0
ucan[0,13] 0
ucan[0,14] 0
ucan[0,15] 0
ucan[1,0] 0
ucan[1,1] 0
ucan[1,2] 1
ucan[1,3] 0
ucan[1,4] 0
ucan[1,5] 0
ucan[1,6] 0
ucan[1,7] 0
ucan[1,8] 1
ucan[1,9] 0
ucan[1,10] 0
ucan[1,11] 0
ucan[1,12] 1
ucan[1,13] 1
ucan[1,14] 0
ucan[1,15] 1
ucan[2,0] 1
ucan[2,1] 0
ucan[2,2] 1
ucan[2,3] 1
ucan[2,4] 0
ucan[2,5] 1
ucan[2,6] 1
ucan[2,7] 1
ucan[2,8] 0
ucan[2,9] 0
ucan[2,10] 0
ucan[2,11] 0
ucan[2,12] 1
ucan[2,13] 1
ucan[2,14] 0
ucan[2,15] 1
ucan[3,0] 0
ucan[3,1] 0
ucan[3,2] 0
ucan[3,3] 0
ucan[3,4] 0
ucan[3,5] 0
ucan[3,6] 0
ucan[3,7] 0
ucan[3,8] 0
ucan[3,9] 0
ucan[3,10] 0
ucan[3,11] 0
ucan[3,12] 0
ucan[3,13] 0
ucan[3,14] 0
ucan[3,15] 0
ucan[4,0] 0
ucan[4,1] 0
ucan[4,2] 0
ucan[4,3] 0
ucan[4,4] 0
ucan[4,5] 0
ucan[4,6] 0
ucan[4,7] 0
ucan[4,8] 0
ucan[4,9] 0
ucan[4,10] 0
ucan[4,11] 0
ucan[4,12] 0
ucan[4,13] 0
ucan[4,14] 0
ucan[4,15] 0
ucan[5,0] 0
ucan[5,1] 0
ucan[5,2] 0
ucan[5,3] 0
ucan[5,4] 0
ucan[5,5] 0
ucan[5,6] 0
ucan[5,7] 0
ucan[5,8] 0
ucan[5,9] 0
ucan[5,10] 0
ucan[5,11] 0
ucan[5,12] 0
ucan[5,13] 0
ucan[5,14] 0
ucan[5,15] 0
uAC[0,0] 1
uAC[0,1] 0
uAC[0,2] 1
uAC[0,3] 1
uAC[1,0] 1
uAC[1,1] 1
uAC[1,2] 0
uAC[1,3] 1
uAC[2,0] 0
uAC[2,1] 0
uAC[2,2] 0
uAC[2,3] 0
uAC[3,0] 0
uAC[3,1] 0
uAC[3,2] 0
uAC[3,3] 0
uAC[4,0] 1
uAC[4,1] 1
uAC[4,2] 0
uAC[4,3] 1
uTC[0,0] 1
uTC[0,1] 0
uTC[0,2] 1
uTC[0,3] 0
uTC[1,0] 0
uTC[1,1] 0
uTC[1,2] 0
uTC[1,3] 0
uTC[2,0] 0
uTC[2,1] 0
uTC[2,2] 0
uTC[2,3] 0
uTC[3,0] 0
uTC[3,1] 0
uTC[3,2] 0
uTC[3,3] 0
uTC[4,0] 1
uTC[4,1] 1
uTC[4,2] 0
uTC[4,3] 1
uLANE[0] 0
uLANE[1] 1
uLANE[2] 1
uLANE[3] 1
uLANE[4] 1
uLANE[5] 0
uLANE[6] 1
uLANE[7] 0
uLANE[8] 1
uLANE[9] 1
uLANE[10] 0
uLANE[11] 1
uLANE[12] 0
uLANE[13] 1
uLANE[14] 0
uLANE[15] 0
uT2CanA[0,0] 4
uT2CanA[0,1] 0
uT2CanA[0,2] 4
uT2CanA[0,3] 2
uT2CanA[1,0] 2
uT2CanA[1,1] 2
uT2CanA[1,2] 0
uT2CanA[1,3] 2
uT2CanA[2,0] 0
uT2CanA[2,1] 0
uT2CanA[2,2] 0
uT2CanA[2,3] 0
uT2CanA[3,0] 0
uT2CanA[3,1] 0
uT2CanA[3,2] 0
uT2CanA[3,3] 0
uT2CanA[4,0] 3
uT2CanA[4,1] 3
uT2CanA[4,2] 0
uT2CanA[4,3] 3
uT2CanB[0,0] 0
uT2CanB[0,1] 0
uT2CanB[0,2] 0
uT2CanB[0,3] 1
uT2CanB[1,0] 1
uT2CanB[1,1] 1
uT2CanB[1,2] 0
uT2CanB[1,3] 1
uT2CanB[2,0] 0
uT2CanB[2,1] 0
uT2CanB[2,2] 0
uT2CanB[2,3] 0
uT2CanB[3,0] 0
uT2CanB[3,1] 0
uT2CanB[3,2] 0
uT2CanB[3,3] 0
uT2CanB[4,0] 0
uT2CanB[4,1] 0
uT2CanB[4,2] 0
uT2CanB[4,3] 0
uT2CanC[1,0] 1
uT2CanC[1,1] 0
uT2CanC[1,2] 1
uT2CanC[1,3] 3
uT2CanC[2,0] 3
uT2CanC[2,1] 3
uT2CanC[2,2] 0
uT2CanC[2,3] 3
uT2CanC[3,0] 0
uT2CanC[3,1] 0
uT2CanC[3,2] 0
uT2CanC[3,3] 0
uT2CanC[4,0] 0
uT2CanC[4,1] 0
uT2CanC[4,2] 0
uT2CanC[4,3] 0
uT2CanC[5,0] 0
uT2CanC[5,1] 0
uT2CanC[5,2] 0
uT2CanC[5,3] 0
uType1[0] 0
uType1[1] 1
uType1[2] 1
uType1[3] 1
uType1[4] 1
uType1[5] 0
uType1[6] 1
uType1[7] 0
uType1[8] 1
uType1[9] 1
uType1[10] 0
uType1[11] 1
uType1[12] 0
uType1[13] 1
uType1[14] 0
uType1[15] 0
uType2[0,0] 0
uType2[0,1] 0
uType2[0,2] 0
uType2[0,3] 2
uType2[1,0] 2
uType2[1,1] 2
uType2[1,2] 0
uType2[1,3] 2
uType2[2,0] 0
uType2[2,1] 0
uType2[2,2] 0
uType2[2,3] 0
uType2[3,0] 0
uType2[3,1] 0
uType2[3,2] 0
uType2[3,3] 0
uType2[4,0] 0
uType2[4,1] 0
uType2[4,2] 0
uType2[4,3] 0
uGstk[0,0] 0
uGstk[0,1] 1
uGstk[0,2] 0
uGstk[0,3] 0
uGstk[0,4] 0
uGstk[0,5] 0
uGstk[0,6] 1
uGstk[0,7] 0
uGstk[0,8] 0
uGstk[0,9] 0
uGstk[0,10] 0
uGstk[0,11] 0
uGstk[0,12] 0
uGstk[0,13] 0
uGstk[0,14] 0
uGstk[0,15] 0
uGstk[1,0] 0
uGstk[1,1] 0
uGstk[1,2] 0
uGstk[1,3] 0
uGstk[1,4] 0
uGstk[1,5] 0
uGstk[1,6] 0
uGstk[1,7] 0
uGstk[1,8] 0
uGstk[1,9] 0
uGstk[1,10] 0
uGstk[1,11] 0
uGstk[1,12] 0
uGstk[1,13] 0
uGstk[1,14] 0
uGstk[1,15] 0
uDetX[0,0] 0
uDetX[0,1] 1
uDetX[0,2] 0
uDetX[0,3] 0
uDetX[0,4] 0
uDetX[0,5] 0
uDetX[0,6] 1
uDetX[0,7] 0
uDetX[0,8] 0
uDetX[0,9] 0
uDetX[0,10] 0
uDetX[0,11] 0
uDetX[0,12] 0
uDetX[0,13] 0
uDetX[0,14] 0
uDetX[0,15] 0
uDetX[1,0] 0
uDetX[1,1] 0
uDetX[1,2] 0
uDetX[1,3] 0
uDetX[1,4] 0
uDetX[1,5] 0
uDetX[1,6] 0
uDetX[1,7] 0
uDetX[1,8] 0
uDetX[1,9] 0
uDetX[1,10] 0
uDetX[1,11] 0
uDetX[1,12] 0
uDetX[1,13] 0
uDetX[1,14] 0
uDetX[1,15] 0
uFrSB[0,0] 0
uFrSB[0,1] 1
uFrSB[0,2] 0
uFrSB[0,3] 0
uFrSB[0,4] 0
uFrSB[0,5] 0
uFrSB[0,6] 1
uFrSB[0,7] 0
uFrSB[0,8] 0
uFrSB[0,9] 0
uFrSB[0,10] 0
uFrSB[0,11] 0
uFrSB[0,12] 0
uFrSB[0,13] 0
uFrSB[0,14] 0
uFrSB[0,15] 0
uFrSB[1,0] 0
uFrSB[1,1] 0
uFrSB[1,2] 0
uFrSB[1,3] 0
uFrSB[1,4] 0
uFrSB[1,5] 0
uFrSB[1,6] 0
uFrSB[1,7] 0
uFrSB[1,8] 0
uFrSB[1,9] 0
uFrSB[1,10] 0
uFrSB[1,11] 0
uFrSB[1,12] 0
uFrSB[1,13] 0
uFrSB[1,14] 0
uFrSB[1,15] 0
uDetY[0,0] 0
uDetY[0,1] 1
uDetY[0,2] 0
uDetY[0,3] 0
uDetY[0,4] 0
uDetY[0,5] 0
uDetY[0,6] 1
uDetY[0,7] 0
uDetY[0,8] 0
uDetY[0,9] 0
uDetY[0,10] 0
uDetY[0,11] 0
uDetY[0,12] 0
uDetY[0,13] 0
uDetY[0,14] 0
uDetY[0,15] 0
uDetY[1,0] 0
uDetY[1,1] 0
uDetY[1,2] 0
uDetY[1,3] 0
uDetY[1,4] 0
uDetY[1,5] 0
uDetY[1,6] 0
uDetY[1,7] 0
uDetY[1,8] 0
uDetY[1,9] 0
uDetY[1,10] 0
uDetY[1,11] 0
uDetY[1,12] 0
uDetY[1,13] 0
uDetY[1,14] 0
uDetY[1,15] 0
uDetZ[0,0] 0
uDetZ[0,1] 0
uDetZ[0,2] 0
uDetZ[0,3] 0
uDetZ[0,4] 0
uDetZ[0,5] 0
uDetZ[0,6] 0
uDetZ[0,7] 0
uDetZ[0,8] 0
uDetZ[0,9] 0
uDetZ[0,10] 0
uDetZ[0,11] 0
uDetZ[0,12] 0
uDetZ[0,13] 1
uDetZ[0,14] 1
uDetZ[0,15] 0
uDetZ[1,0] 0
uDetZ[1,1] 0
uDetZ[1,2] 0
uDetZ[1,3] 0
uDetZ[1,4] 0
uDetZ[1,5] 0
uDetZ[1,6] 0
uDetZ[1,7] 0
uDetZ[1,8] 0
uDetZ[1,9] 0
uDetZ[1,10] 0
uDetZ[1,11] 0
uDetZ[1,12] 0
uDetZ[1,13] 0
uDetZ[1,14] 0
uDetZ[1,15] 0
uDetW[-1,0] 1
uDetW[-1,1] 1
uDetW[-1,2] 1
uDetW[-1,3] 1
uDetW[-1,4] 1
uDetW[-1,5] 1
uDetW[-1,6] 1
uDetW[-1,7] 1
uDetW[-1,8] 1
uDetW[-1,9] 1
uDetW[-1,10] 1
uDetW[-1,11] 1
uDetW[-1,12] 1
uDetW[-1,13] 1
uDetW[-1,14] 1
uDetW[-1,15] 1
uDetW[0,0] 0
uDetW[0,1] 0
uDetW[0,2] 0
uDetW[0,3] 0
uDetW[0,4] 0
uDetW[0,5] 0
uDetW[0,6] 0
uDetW[0,7] 0
uDetW[0,8] 0
uDetW[0,9] 0
uDetW[0,10] 0
uDetW[0,11] 0
uDetW[0,12] 0
uDetW[0,13] 0
uDetW[0,14] 0
uDetW[0,15] 0
uDetW[1,0] 0
uDetW[1,1] 0
uDetW[1,2] 0
uDetW[1,3] 0
uDetW[1,4] 0
uDetW[1,5] 0
uDetW[1,6] 0
uDetW[1,7] 0
uDetW[1,8] 0
uDetW[1,9] 0
uDetW[1,10] 0
uDetW[1,11] 0
uDetW[1,12] 0
uDetW[1,13] 0
uDetW[1,14] 0
uDetW[1,15] 0
uDetC[0,0] 0
uDetC[0,1] 0
uDetC[0,2] 0
uDetC[0,3] 0
uDetC[1,0] 0
uDetC[1,1] 0
uDetC[1,2] 0
uDetC[1,3] 0
uDiffDetMC[0,0] 0
uDiffDetMC[0,1] 0
uDiffDetMC[0,2] 0
uDiffDetMC[0,3] 0
uDiffDetMC[0,4] 1
uDiffDetMC[0,5] 1
uDiffDetMC[0,6] 1
uDiffDetMC[0,7] 1
uDiffDetMC[0,8] 0
uDiffDetMC[0,9] 0
uDiffDetMC[0,10] 0
uDiffDetMC[0,11] 0
uDiffDetMC[0,12] 1
uDiffDetMC[0,13] 1
uDiffDetMC[0,14] 1
uDiffDetMC[0,15] 1
uDiffDetMC[1,0] 0
uDiffDetMC[1,1] 1
uDiffDetMC[1,2] 0
uDiffDetMC[1,3] 1
uDiffDetMC[1,4] 1
uDiffDetMC[1,5] 0
uDiffDetMC[1,6] 1
uDiffDetMC[1,7] 0
uDiffDetMC[1,8] 1
uDiffDetMC[1,9] 1
uDiffDetMC[1,10] 1
uDiffDetMC[1,11] 1
uDiffDetMC[1,12] 1
uDiffDetMC[1,13] 0
uDiffDetMC[1,14] 1
uDiffDetMC[1,15] 0
uDiffDetC[0,0] 0
uDiffDetC[0,1] 1
uDiffDetC[0,2] 0
uDiffDetC[0,3] 1
uDiffDetC[1,0] 0
uDiffDetC[1,1] 0
uDiffDetC[1,2] 1
uDiffDetC[1,3] 0
uFrMC[0,0] 0
uFrMC[0,1] 0
uFrMC[0,2] 0
uFrMC[0,3] 0
uFrMC[0,4] 0
uFrMC[0,5] 0
uFrMC[0,6] 0
uFrMC[0,7] 0
uFrMC[0,8] 0
uFrMC[0,9] 0
uFrMC[0,10] 0
uFrMC[0,11] 0
uFrMC[0,12] 0
uFrMC[0,13] 0
uFrMC[0,14] 0
uFrMC[0,15] 0
uFrMC[1,0] 0
uFrMC[1,1] 0
uFrMC[1,2] 0
uFrMC[1,3] 0
uFrMC[1,4] 0
uFrMC[1,5] 0
uFrMC[1,6] 0
uFrMC[1,7] 0
uFrMC[1,8] 0
uFrMC[1,9] 0
uFrMC[1,10] 0
uFrMC[1,11] 0
uFrMC[1,12] 0
uFrMC[1,13] 0
uFrMC[1,14] 0
uFrMC[1,15] 0
lDW[5,0] 0
lDW[5,1] 1
lDW[5,2] 0
lDW[5,3] 0
lDW[5,4] 0
lDW[5,5] 1
lDW[5,6] 0
lDW[5,7] 0
lDW[5,8] 0
lDW[5,9] 0
lDW[5,10] 1
lDW[5,11] 0
lDW[5,12] 1
lDW[5,13] 0
lDW[5,14] 0
lDW[5,15] 1
lDW[6,0] 1
lDW[6,1] 0
lDW[6,2] 0
lDW[6,3] 1
lDW[6,4] 0
lDW[6,5] 0
lDW[6,6] 0
lDW[6,7] 0
lDW[6,8] 0
lDW[6,9] 0
lDW[6,10] 0
lDW[6,11] 0
lDW[6,12] 0
lDW[6,13] 0
lDW[6,14] 0
lDW[6,15] 0
lDW[7,0] 0
lDW[7,1] 0
lDW[7,2] 0
lDW[7,3] 0
lDW[7,4] 0
lDW[7,5] 0
lDW[7,6] 0
lDW[7,7] 0
lDW[7,8] 0
lDW[7,9] 0
lDW[7,10] 0
lDW[7,11] 0
lDW[7,12] 0
lDW[7,13] 0
lDW[7,14] 0
lDW[7,15] 0
lDW[8,0] 0
lDW[8,1] 0
lDW[8,2] 0
lDW[8,3] 0
lDW[8,4] 0
lDW[8,5] 0
lDW[8,6] 0
lDW[8,7] 0
lDW[8,8] 0
lDW[8,9] 0
lDW[8,10] 0
lDW[8,11] 0
lDW[8,12] 0
lDW[8,13] 0
lDW[8,14] 0
lDW[8,15] 0
ldw[5,0] 0
ldw[5,1] 0
ldw[5,2] 0
ldw[5,3] 0
ldw[5,4] 0
ldw[5,5] 1
ldw[5,6] 0
ldw[5,7] 0
ldw[5,8] 0
ldw[5,9] 0
ldw[5,10] 1
ldw[5,11] 0
ldw[5,12] 0
ldw[5,13] 0
ldw[5,14] 0
ldw[5,15] 1
ldw[6,0] 0
ldw[6,1] 0
ldw[6,2] 0
ldw[6,3] 0
ldw[6,4] 0
ldw[6,5] 0
ldw[6,6] 0
ldw[6,7] 0
ldw[6,8] 0
ldw[6,9] 0
ldw[6,10] 0
ldw[6,11] 0
ldw[6,12] 0
ldw[6,13] 0
ldw[6,14] 0
ldw[6,15] 0
ldw[7,0] 0
ldw[7,1] 0
ldw[7,2] 0
ldw[7,3] 0
ldw[7,4] 0
ldw[7,5] 0
ldw[7,6] 0
ldw[7,7] 0
ldw[7,8] 0
ldw[7,9] 0
ldw[7,10] 0
ldw[7,11] 0
ldw[7,12] 0
ldw[7,13] 0
ldw[7,14] 0
ldw[7,15] 0
ldw[8,0] 0
ldw[8,1] 0
ldw[8,2] 0
ldw[8,3] 0
ldw[8,4] 0
ldw[8,5] 0
ldw[8,6] 0
ldw[8,7] 0
ldw[8,8] 0
ldw[8,9] 0
ldw[8,10] 0
ldw[8,11] 0
ldw[8,12] 0
ldw[8,13] 0
ldw[8,14] 0
ldw[8,15] 0
lDX[6,0] 0
lDX[6,1] 0
lDX[6,2] 0
lDX[6,3] 0
lDX[6,4] 0
lDX[6,5] 1
lDX[6,6] 0
lDX[6,7] 0
lDX[6,8] 0
lDX[6,9] 0
lDX[6,10] 1
lDX[6,11] 0
lDX[6,12] 0
lDX[6,13] 0
lDX[6,14] 0
lDX[6,15] 1
lDX[7,0] 0
lDX[7,1] 0
lDX[7,2] 0
lDX[7,3] 0
lDX[7,4] 0
lDX[7,5] 0
lDX[7,6] 0
lDX[7,7] 0
lDX[7,8] 0
lDX[7,9] 0
lDX[7,10] 0
lDX[7,11] 0
lDX[7,12] 0
lDX[7,13] 0
lDX[7,14] 0
lDX[7,15] 0
lDX[8,0] 0
lDX[8,1] 0
lDX[8,2] 0
lDX[8,3] 0
lDX[8,4] 0
lDX[8,5] 0
lDX[8,6] 0
lDX[8,7] 0
lDX[8,8] 0
lDX[8,9] 0
lDX[8,10] 0
lDX[8,11] 0
lDX[8,12] 0
lDX[8,13] 0
lDX[8,14] 0
lDX[8,15] 0
lDX[9,0] 0
lDX[9,1] 0
lDX[9,2] 0
lDX[9,3] 0
lDX[9,4] 0
lDX[9,5] 1
lDX[9,6] 0
lDX[9,7] 0
lDX[9,8] 0
lDX[9,9] 0
lDX[9,10] 0
lDX[9,11] 0
lDX[9,12] 0
lDX[9,13] 0
lDX[9,14] 1
lDX[9,15] 0
ldx[6,0] 0
ldx[6,1] 0
ldx[6,2] 0
ldx[6,3] 0
ldx[6,4] 0
ldx[6,5] 1
ldx[6,6] 0
ldx[6,7] 0
ldx[6,8] 0
ldx[6,9] 0
ldx[6,10] 1
ldx[6,11] 0
ldx[6,12] 0
ldx[6,13] 0
ldx[6,14] 0
ldx[6,15] 1
ldx[7,0] 0
ldx[7,1] 0
ldx[7,2] 0
ldx[7,3] 0
ldx[7,4] 0
ldx[7,5] 0
ldx[7,6] 0
ldx[7,7] 0
ldx[7,8] 0
ldx[7,9] 0
ldx[7,10] 0
ldx[7,11] 0
ldx[7,12] 0
ldx[7,13] 0
ldx[7,14] 0
ldx[7,15] 0
ldx[8,0] 0
ldx[8,1] 0
ldx[8,2] 0
ldx[8,3] 0
ldx[8,4] 0
ldx[8,5] 0
ldx[8,6] 0
ldx[8,7] 0
ldx[8,8] 0
ldx[8,9] 0
ldx[8,10] 0
ldx[8,11] 0
ldx[8,12] 0
ldx[8,13] 0
ldx[8,14] 0
ldx[8,15] 0
ldx[9,0] 0
ldx[9,1] 0
ldx[9,2] 0
ldx[9,3] 0
ldx[9,4] 0
ldx[9,5] 0
ldx[9,6] 0
ldx[9,7] 0
ldx[9,8] 0
ldx[9,9] 0
ldx[9,10] 0
ldx[9,11] 0
ldx[9,12] 0
ldx[9,13] 0
ldx[9,14] 0
ldx[9,15] 0
lDY[5,0] 1
lDY[5,1] 1
lDY[5,2] 1
lDY[5,3] 1
lDY[5,4] 1
lDY[5,5] 1
lDY[5,6] 1
lDY[5,7] 1
lDY[5,8] 1
lDY[5,9] 1
lDY[5,10] 1
lDY[5,11] 1
lDY[5,12] 1
lDY[5,13] 1
lDY[5,14] 1
lDY[5,15] 1
lDY[6,0] 0
lDY[6,1] 0
lDY[6,2] 0
lDY[6,3] 0
lDY[6,4] 0
lDY[6,5] 1
lDY[6,6] 0
lDY[6,7] 0
lDY[6,8] 0
lDY[6,9] 0
lDY[6,10] 1
lDY[6,11] 0
lDY[6,12] 0
lDY[6,13] 0
lDY[6,14] 0
lDY[6,15] 1
lDY[7,0] 0
lDY[7,1] 0
lDY[7,2] 0
lDY[7,3] 0
lDY[7,4] 0
lDY[7,5] 0
lDY[7,6] 0
lDY[7,7] 0
lDY[7,8] 0
lDY[7,9] 0
lDY[7,10] 0
lDY[7,11] 0
lDY[7,12] 0
lDY[7,13] 0
lDY[7,14] 0
lDY[7,15] 0
lDY[8,0] 0
lDY[8,1] 0
lDY[8,2] 0
lDY[8,3] 0
lDY[8,4] 0
lDY[8,5] 0
lDY[8,6] 0
lDY[8,7] 0
lDY[8,8] 0
lDY[8,9] 0
lDY[8,10] 0
lDY[8,11] 0
lDY[8,12] 0
lDY[8,13] 0
lDY[8,14] 0
lDY[8,15] 0
ldy[5,0] 0
ldy[5,1] 1
ldy[5,2] 1
ldy[5,3] 1
ldy[5,4] 1
ldy[5,5] 0
ldy[5,6] 1
ldy[5,7] 1
ldy[5,8] 1
ldy[5,9] 1
ldy[5,10] 0
ldy[5,11] 1
ldy[5,12] 1
ldy[5,13] 1
ldy[5,14] 1
ldy[5,15] 0
ldy[6,0] 0
ldy[6,1] 0
ldy[6,2] 0
ldy[6,3] 0
ldy[6,4] 0
ldy[6,5] 0
ldy[6,6] 0
ldy[6,7] 0
ldy[6,8] 0
ldy[6,9] 0
ldy[6,10] 0
ldy[6,11] 0
ldy[6,12] 0
ldy[6,13] 0
ldy[6,14] 0
ldy[6,15] 0
ldy[7,0] 0
ldy[7,1] 0
ldy[7,2] 0
ldy[7,3] 0
ldy[7,4] 0
ldy[7,5] 0
ldy[7,6] 0
ldy[7,7] 0
ldy[7,8] 0
ldy[7,9] 0
ldy[7,10] 0
ldy[7,11] 0
ldy[7,12] 0
ldy[7,13] 0
ldy[7,14] 0
ldy[7,15] 0
ldy[8,0] 0
ldy[8,1] 0
ldy[8,2] 0
ldy[8,3] 0
ldy[8,4] 0
ldy[8,5] 0
ldy[8,6] 0
ldy[8,7] 0
ldy[8,8] 0
ldy[8,9] 0
ldy[8,10] 0
ldy[8,11] 0
ldy[8,12] 0
ldy[8,13] 0
ldy[8,14] 0
ldy[8,15] 0
lDZ[5,0] 1
lDZ[5,1] 1
lDZ[5,2] 1
lDZ[5,3] 1
lDZ[5,4] 1
lDZ[5,5] 1
lDZ[5,6] 1
lDZ[5,7] 1
lDZ[5,8] 1
lDZ[5,9] 1
lDZ[5,10] 1
lDZ[5,11] 1
lDZ[5,12] 1
lDZ[5,13] 1
lDZ[5,14] 1
lDZ[5,15] 1
lDZ[6,0] 0
lDZ[6,1] 1
lDZ[6,2] 1
lDZ[6,3] 1
lDZ[6,4] 0
lDZ[6,5] 0
lDZ[6,6] 0
lDZ[6,7] 0
lDZ[6,8] 0
lDZ[6,9] 0
lDZ[6,10] 0
lDZ[6,11] 0
lDZ[6,12] 0
lDZ[6,13] 0
lDZ[6,14] 0
lDZ[6,15] 0
lDZ[7,0] 0
lDZ[7,1] 0
lDZ[7,2] 0
lDZ[7,3] 0
lDZ[7,4] 0
lDZ[7,5] 0
lDZ[7,6] 0
lDZ[7,7] 0
lDZ[7,8] 0
lDZ[7,9] 0
lDZ[7,10] 0
lDZ[7,11] 0
lDZ[7,12] 0
lDZ[7,13] 0
lDZ[7,14] 0
lDZ[7,15] 0
lDZ[8,0] 0
lDZ[8,1] 0
lDZ[8,2] 0
lDZ[8,3] 0
lDZ[8,4] 0
lDZ[8,5] 0
lDZ[8,6] 0
lDZ[8,7] 0
lDZ[8,8] 0
lDZ[8,9] 0
lDZ[8,10] 0
lDZ[8,11] 0
lDZ[8,12] 0
lDZ[8,13] 0
lDZ[8,14] 0
lDZ[8,15] 0
ldz[5,0] 0
ldz[5,1] 0
ldz[5,2] 0
ldz[5,3] 0
ldz[5,4] 1
ldz[5,5] 1
ldz[5,6] 1
ldz[5,7] 1
ldz[5,8] 1
ldz[5,9] 1
ldz[5,10] 1
ldz[5,11] 1
ldz[5,12] 1
ldz[5,13] 1
ldz[5,14] 1
ldz[5,15] 1
ldz[6,0] 0
ldz[6,1] 0
ldz[6,2] 0
ldz[6,3] 0
ldz[6,4] 0
ldz[6,5] 0
ldz[6,6] 0
ldz[6,7] 0
ldz[6,8] 0
ldz[6,9] 0
ldz[6,10] 0
ldz[6,11] 0
ldz[6,12] 0
ldz[6,13] 0
ldz[6,14] 0
ldz[6,15] 0
ldz[7,0] 0
ldz[7,1] 0
ldz[7,2] 0
ldz[7,3] 0
ldz[7,4] 0
ldz[7,5] 0
ldz[7,6] 0
ldz[7,7] 0
ldz[7,8] 0
ldz[7,9] 0
ldz[7,10] 0
ldz[7,11] 0
ldz[7,12] 0
ldz[7,13] 0
ldz[7,14] 0
ldz[7,15] 0
ldz[8,0] 0
ldz[8,1] 0
ldz[8,2] 0
ldz[8,3] 0
ldz[8,4] 0
ldz[8,5] 0
ldz[8,6] 0
ldz[8,7] 0
ldz[8,8] 0
ldz[8,9] 0
ldz[8,10] 0
ldz[8,11] 0
ldz[8,12] 0
ldz[8,13] 0
ldz[8,14] 0
ldz[8,15] 0
lstk[5,0] 0
lstk[5,1] 0
lstk[5,2] 0
lstk[5,3] 0
lstk[5,4] 0
lstk[5,5] 0
lstk[5,6] 1
lstk[5,7] 0
lstk[5,8] 0
lstk[5,9] 0
lstk[5,10] 0
lstk[5,11] 0
lstk[5,12] 0
lstk[5,13] 1
lstk[5,14] 0
lstk[5,15] 0
lstk[6,0] 0
lstk[6,1] 1
lstk[6,2] 0
lstk[6,3] 0
lstk[6,4] 0
lstk[6,5] 0
lstk[6,6] 0
lstk[6,7] 0
lstk[6,8] 0
lstk[6,9] 0
lstk[6,10] 0
lstk[6,11] 0
lstk[6,12] 1
lstk[6,13] 0
lstk[6,14] 0
lstk[6,15] 0
lstk[7,0] 1
lstk[7,1] 0
lstk[7,2] 0
lstk[7,3] 1
lstk[7,4] 0
lstk[7,5] 0
lstk[7,6] 0
lstk[7,7] 0
lstk[7,8] 0
lstk[7,9] 0
lstk[7,10] 0
lstk[7,11] 0
lstk[7,12] 0
lstk[7,13] 0
lstk[7,14] 0
lstk[7,15] 0
lstk[8,0] 0
lstk[8,1] 0
lstk[8,2] 0
lstk[8,3] 0
lstk[8,4] 0
lstk[8,5] 0
lstk[8,6] 0
lstk[8,7] 0
lstk[8,8] 0
lstk[8,9] 0
lstk[8,10] 0
lstk[8,11] 0
lstk[8,12] 0
lstk[8,13] 0
lstk[8,14] 0
lstk[8,15] 0
lstk[9,0] 0
lstk[9,1] 0
lstk[9,2] 0
lstk[9,3] 0
lstk[9,4] 0
lstk[9,5] 1
lstk[9,6] 0
lstk[9,7] 0
lstk[9,8] 0
lstk[9,9] 0
lstk[9,10] 0
lstk[9,11] 0
lstk[9,12] 0
lstk[9,13] 0
lstk[9,14] 1
lstk[9,15] 0
lstk[10,0] 0
lstk[10,1] 0
lstk[10,2] 0
lstk[10,3] 0
lstk[10,4] 1
lstk[10,5] 0
lstk[10,6] 0
lstk[10,7] 0
lstk[10,8] 0
lstk[10,9] 1
lstk[10,10] 0
lstk[10,11] 0
lstk[10,12] 0
lstk[10,13] 0
lstk[10,14] 0
lstk[10,15] 0
lstk[11,0] 0
lstk[11,1] 0
lstk[11,2] 0
lstk[11,3] 0
lstk[11,4] 0
lstk[11,5] 0
lstk[11,6] 0
lstk[11,7] 0
lstk[11,8] 1
lstk[11,9] 0
lstk[11,10] 0
lstk[11,11] 1
lstk[11,12] 0
lstk[11,13] 0
lstk[11,14] 0
lstk[11,15] 0
lcan[6,0] 0
lcan[6,1] 1
lcan[6,2] 0
lcan[6,3] 0
lcan[6,4] 0
lcan[6,5] 0
lcan[6,6] 0
lcan[6,7] 0
lcan[6,8] 0
lcan[6,9] 0
lcan[6,10] 0
lcan[6,11] 0
lcan[6,12] 1
lcan[6,13] 0
lcan[6,14] 0
lcan[6,15] 0
lcan[7,0] 1
lcan[7,1] 0
lcan[7,2] 0
lcan[7,3] 1
lcan[7,4] 0
lcan[7,5] 0
lcan[7,6] 0
lcan[7,7] 0
lcan[7,8] 0
lcan[7,9] 0
lcan[7,10] 0
lcan[7,11] 0
lcan[7,12] 0
lcan[7,13] 0
lcan[7,14] 0
lcan[7,15] 0
lcan[8,0] 0
lcan[8,1] 0
lcan[8,2] 0
lcan[8,3] 0
lcan[8,4] 0
lcan[8,5] 0
lcan[8,6] 0
lcan[8,7] 0
lcan[8,8] 0
lcan[8,9] 0
lcan[8,10] 0
lcan[8,11] 0
lcan[8,12] 0
lcan[8,13] 0
lcan[8,14] 0
lcan[8,15] 0
lcan[9,0] 0
lcan[9,1] 0
lcan[9,2] 0
lcan[9,3] 0
lcan[9,4] 0
lcan[9,5] 0
lcan[9,6] 0
lcan[9,7] 0
lcan[9,8] 0
lcan[9,9] 0
lcan[9,10] 0
lcan[9,11] 0
lcan[9,12] 0
lcan[9,13] 0
lcan[9,14] 0
lcan[9,15] 0
lAC[5,0] 1
lAC[5,1] 1
lAC[5,2] 1
lAC[5,3] 1
lAC[6,0] 1
lAC[6,1] 0
lAC[6,2] 0
lAC[6,3] 0
lAC[7,0] 0
lAC[7,1] 0
lAC[7,2] 0
lAC[7,3] 0
lAC[8,0] 0
lAC[8,1] 0
lAC[8,2] 0
lAC[8,3] 0
lAC[9,0] 1
lAC[9,1] 1
lAC[9,2] 1
lAC[9,3] 0
lTC[5,0] 0
lTC[5,1] 1
lTC[5,2] 1
lTC[5,3] 1
lTC[6,0] 0
lTC[6,1] 0
lTC[6,2] 0
lTC[6,3] 0
lTC[7,0] 0
lTC[7,1] 0
lTC[7,2] 0
lTC[7,3] 0
lTC[8,0] 0
lTC[8,1] 0
lTC[8,2] 0
lTC[8,3] 0
lTC[9,0] 1
lTC[9,1] 1
lTC[9,2] 0
lTC[9,3] 0
leqDW[9,0] 0
leqDW[9,1] 1
leqDW[9,2] 0
leqDW[9,3] 0
leqDW[9,4] 1
leqDW[9,5] 1
leqDW[9,6] 1
leqDW[9,7] 1
leqDW[9,8] 1
leqDW[9,9] 1
leqDW[9,10] 1
leqDW[9,11] 1
leqDW[9,12] 0
leqDW[9,13] 0
leqDW[9,14] 0
leqDW[9,15] 0
leqdw[9,0] 0
leqdw[9,1] 1
leqdw[9,2] 0
leqdw[9,3] 0
leqdw[9,4] 0
leqdw[9,5] 0
leqdw[9,6] 1
leqdw[9,7] 0
leqdw[9,8] 0
leqdw[9,9] 0
leqdw[9,10] 0
leqdw[9,11] 0
leqdw[9,12] 0
leqdw[9,13] 0
leqdw[9,14] 0
leqdw[9,15] 0
leqDX[10,0] 1
leqDX[10,1] 1
leqDX[10,2] 1
leqDX[10,3] 1
leqDX[10,4] 1
leqDX[10,5] 1
leqDX[10,6] 1
leqDX[10,7] 1
leqDX[10,8] 0
leqDX[10,9] 1
leqDX[10,10] 0
leqDX[10,11] 0
leqDX[10,12] 0
leqDX[10,13] 0
leqDX[10,14] 0
leqDX[10,15] 0
leqdx[10,0] 1
leqdx[10,1] 1
leqdx[10,2] 1
leqdx[10,3] 1
leqdx[10,4] 1
leqdx[10,5] 1
leqdx[10,6] 1
leqdx[10,7] 1
leqdx[10,8] 0
leqdx[10,9] 0
leqdx[10,10] 0
leqdx[10,11] 0
leqdx[10,12] 0
leqdx[10,13] 0
leqdx[10,14] 0
leqdx[10,15] 0
leqDY[9,0] 0
leqDY[9,1] 0
leqDY[9,2] 0
leqDY[9,3] 0
leqDY[9,4] 0
leqDY[9,5] 1
leqDY[9,6] 0
leqDY[9,7] 0
leqDY[9,8] 0
leqDY[9,9] 0
leqDY[9,10] 0
leqDY[9,11] 0
leqDY[9,12] 0
leqDY[9,13] 0
leqDY[9,14] 1
leqDY[9,15] 0
leqDY[10,0] 1
leqDY[10,1] 1
leqDY[10,2] 1
leqDY[10,3] 1
leqDY[10,4] 1
leqDY[10,5] 1
leqDY[10,6] 1
leqDY[10,7] 1
leqDY[10,8] 0
leqDY[10,9] 1
leqDY[10,10] 0
leqDY[10,11] 0
leqDY[10,12] 0
leqDY[10,13] 0
leqDY[10,14] 0
leqDY[10,15] 0
leqdy[9,0] 0
leqdy[9,1] 0
leqdy[9,2] 0
leqdy[9,3] 0
leqdy[9,4] 0
leqdy[9,5] 1
leqdy[9,6] 0
leqdy[9,7] 0
leqdy[9,8] 0
leqdy[9,9] 0
leqdy[9,10] 0
leqdy[9,11] 0
leqdy[9,12] 0
leqdy[9,13] 0
leqdy[9,14] 1
leqdy[9,15] 0
leqdy[10,0] 1
leqdy[10,1] 1
leqdy[10,2] 1
leqdy[10,3] 1
leqdy[10,4] 1
leqdy[10,5] 1
leqdy[10,6] 1
leqdy[10,7] 1
leqdy[10,8] 0
leqdy[10,9] 1
leqdy[10,10] 0
leqdy[10,11] 0
leqdy[10,12] 0
leqdy[10,13] 0
leqdy[10,14] 0
leqdy[10,15] 0
leqDZ[9,0] 0
leqDZ[9,1] 0
leqDZ[9,2] 1
leqDZ[9,3] 1
leqDZ[9,4] 1
leqDZ[9,5] 1
leqDZ[9,6] 0
leqDZ[9,7] 1
leqDZ[9,8] 1
leqDZ[9,9] 1
leqDZ[9,10] 0
leqDZ[9,11] 0
leqDZ[9,12] 0
leqDZ[9,13] 1
leqDZ[9,14] 1
leqDZ[9,15] 0
leqDZ[10,0] 1
leqDZ[10,1] 1
leqDZ[10,2] 1
leqDZ[10,3] 1
leqDZ[10,4] 1
leqDZ[10,5] 1
leqDZ[10,6] 1
leqDZ[10,7] 1
leqDZ[10,8] 1
leqDZ[10,9] 1
leqDZ[10,10] 0
leqDZ[10,11] 0
leqDZ[10,12] 0
leqDZ[10,13] 1
leqDZ[10,14] 0
leqDZ[10,15] 0
leqdz[9,0] 0
leqdz[9,1] 0
leqdz[9,2] 0
leqdz[9,3] 0
leqdz[9,4] 0
leqdz[9,5] 1
leqdz[9,6] 0
leqdz[9,7] 0
leqdz[9,8] 0
leqdz[9,9] 0
leqdz[9,10] 0
leqdz[9,11] 0
leqdz[9,12] 0
leqdz[9,13] 0
leqdz[9,14] 1
leqdz[9,15] 0
leqdz[10,0] 1
leqdz[10,1] 1
leqdz[10,2] 1
leqdz[10,3] 1
leqdz[10,4] 1
leqdz[10,5] 1
leqdz[10,6] 1
leqdz[10,7] 1
leqdz[10,8] 0
leqdz[10,9] 1
leqdz[10,10] 0
leqdz[10,11] 0
leqdz[10,12] 0
leqdz[10,13] 0
leqdz[10,14] 0
leqdz[10,15] 0
leqT[10,0] 0
leqT[10,1] 1
leqT[10,2] 1
leqT[10,3] 0
leqT[11,0] 0
leqT[11,1] 0
leqT[11,2] 1
leqT[11,3] 0
leqk[10,0] 0
leqk[10,1] 0
leqk[10,2] 1
leqk[10,3] 1
leqk[10,4] 1
leqk[10,5] 0
leqk[10,6] 0
leqk[10,7] 1
leqk[10,8] 1
leqk[10,9] 1
leqk[10,10] 0
leqk[10,11] 0
leqk[10,12] 0
leqk[10,13] 1
leqk[10,14] 1
leqk[10,15] 0
leqk[11,0] 0
leqk[11,1] 0
leqk[11,2] 1
leqk[11,3] 0
leqk[11,4] 0
leqk[11,5] 0
leqk[11,6] 0
leqk[11,7] 1
leqk[11,8] 1
leqk[11,9] 0
leqk[11,10] 0
leqk[11,11] 0
leqk[11,12] 0
leqk[11,13] 1
leqk[11,14] 0
leqk[11,15] 0
lLANE[0] 0
lLANE[1] 0
lLANE[2] 0
lLANE[3] 0
lLANE[4] 0
lLANE[5] 0
lLANE[6] 0
lLANE[7] 1
lLANE[8] 0
lLANE[9] 0
lLANE[10] 1
lLANE[11] 0
lLANE[12] 0
lLANE[13] 0
lLANE[14] 0
lLANE[15] 0
lT2CanA[5,0] 4
lT2CanA[5,1] 4
lT2CanA[5,2] 4
lT2CanA[5,3] 4
lT2CanA[6,0] 3
lT2CanA[6,1] 0
lT2CanA[6,2] 0
lT2CanA[6,3] 0
lT2CanA[7,0] 0
lT2CanA[7,1] 0
lT2CanA[7,2] 0
lT2CanA[7,3] 0
lT2CanA[8,0] 0
lT2CanA[8,1] 0
lT2CanA[8,2] 0
lT2CanA[8,3] 0
lT2CanB[5,0] 3
lT2CanB[5,1] 3
lT2CanB[5,2] 3
lT2CanB[5,3] 2
lT2CanB[6,0] 2
lT2CanB[6,1] 0
lT2CanB[6,2] 0
lT2CanB[6,3] 0
lT2CanB[7,0] 0
lT2CanB[7,1] 0
lT2CanB[7,2] 0
lT2CanB[7,3] 0
lT2CanB[8,0] 0
lT2CanB[8,1] 0
lT2CanB[8,2] 0
lT2CanB[8,3] 0
lT2CanC[6,0] 1
lT2CanC[6,1] 0
lT2CanC[6,2] 0
lT2CanC[6,3] 1
lT2CanC[7,0] 2
lT2CanC[7,1] 0
lT2CanC[7,2] 0
lT2CanC[7,3] 0
lT2CanC[8,0] 0
lT2CanC[8,1] 0
lT2CanC[8,2] 0
lT2CanC[8,3] 0
lT2CanC[9,0] 0
lT2CanC[9,1] 0
lT2CanC[9,2] 0
lT2CanC[9,3] 0
lType1[0] 0
lType1[1] 0
lType1[2] 0
lType1[3] 0
lType1[4] 0
lType1[5] 0
lType1[6] 0
lType1[7] 1
lType1[8] 0
lType1[9] 0
lType1[10] 1
lType1[11] 0
lType1[12] 0
lType1[13] 0
lType1[14] 0
lType1[15] 0
lType2[5,0] 0
lType2[5,1] 0
lType2[5,2] 0
lType2[5,3] 0
lType2[6,0] 1
lType2[6,1] 0
lType2[6,2] 0
lType2[6,3] 0
lType2[7,0] 0
lType2[7,1] 0
lType2[7,2] 0
lType2[7,3] 0
lType2[8,0] 0
lType2[8,1] 0
lType2[8,2] 0
lType2[8,3] 0
lGstk[10,0] 0
lGstk[10,1] 0
lGstk[10,2] 0
lGstk[10,3] 0
lGstk[10,4] 0
lGstk[10,5] 1
lGstk[10,6] 0
lGstk[10,7] 0
lGstk[10,8] 0
lGstk[10,9] 0
lGstk[10,10] 0
lGstk[10,11] 0
lGstk[10,12] 0
lGstk[10,13] 0
lGstk[10,14] 1
lGstk[10,15] 0
lGstk[11,0] 1
lGstk[11,1] 1
lGstk[11,2] 1
lGstk[11,3] 1
lGstk[11,4] 1
lGstk[11,5] 1
lGstk[11,6] 1
lGstk[11,7] 1
lGstk[11,8] 0
lGstk[11,9] 1
lGstk[11,10] 0
lGstk[11,11] 0
lGstk[11,12] 0
lGstk[11,13] 0
lGstk[11,14] 0
lGstk[11,15] 0
ldetEQX[9,0] 0
ldetEQX[9,1] 0
ldetEQX[9,2] 0
ldetEQX[9,3] 0
ldetEQX[9,4] 0
ldetEQX[9,5] 1
ldetEQX[9,6] 0
ldetEQX[9,7] 0
ldetEQX[9,8] 0
ldetEQX[9,9] 0
ldetEQX[9,10] 0
ldetEQX[9,11] 0
ldetEQX[9,12] 0
ldetEQX[9,13] 0
ldetEQX[9,14] 1
ldetEQX[9,15] 0
ldetEQX[10,0] 1
ldetEQX[10,1] 1
ldetEQX[10,2] 1
ldetEQX[10,3] 1
ldetEQX[10,4] 1
ldetEQX[10,5] 1
ldetEQX[10,6] 1
ldetEQX[10,7] 1
ldetEQX[10,8] 0
ldetEQX[10,9] 1
ldetEQX[10,10] 0
ldetEQX[10,11] 0
ldetEQX[10,12] 0
ldetEQX[10,13] 0
ldetEQX[10,14] 0
ldetEQX[10,15] 0
ldetEQY[9,0] 0
ldetEQY[9,1] 0
ldetEQY[9,2] 0
ldetEQY[9,3] 0
ldetEQY[9,4] 0
ldetEQY[9,5] 1
ldetEQY[9,6] 0
ldetEQY[9,7] 0
ldetEQY[9,8] 0
ldetEQY[9,9] 0
ldetEQY[9,10] 0
ldetEQY[9,11] 0
ldetEQY[9,12] 0
ldetEQY[9,13] 0
ldetEQY[9,14] 1
ldetEQY[9,15] 0
ldetEQY[10,0] 1
ldetEQY[10,1] 1
ldetEQY[10,2] 1
ldetEQY[10,3] 1
ldetEQY[10,4] 1
ldetEQY[10,5] 1
ldetEQY[10,6] 1
ldetEQY[10,7] 1
ldetEQY[10,8] 0
ldetEQY[10,9] 1
ldetEQY[10,10] 0
ldetEQY[10,11] 0
ldetEQY[10,12] 0
ldetEQY[10,13] 0
ldetEQY[10,14] 0
ldetEQY[10,15] 0
ldetEQZ[9,0] 1
ldetEQZ[9,1] 0
ldetEQZ[9,2] 0
ldetEQZ[9,3] 1
ldetEQZ[9,4] 1
ldetEQZ[9,5] 1
ldetEQZ[9,6] 0
ldetEQZ[9,7] 0
ldetEQZ[9,8] 0
ldetEQZ[9,9] 1
ldetEQZ[9,10] 1
ldetEQZ[9,11] 0
ldetEQZ[9,12] 0
ldetEQZ[9,13] 0
ldetEQZ[9,14] 1
ldetEQZ[9,15] 1
ldetEQZ[10,0] 1
ldetEQZ[10,1] 1
ldetEQZ[10,2] 1
ldetEQZ[10,3] 1
ldetEQZ[10,4] 1
ldetEQZ[10,5] 1
ldetEQZ[10,6] 1
ldetEQZ[10,7] 1
ldetEQZ[10,8] 1
ldetEQZ[10,9] 1
ldetEQZ[10,10] 1
ldetEQZ[10,11] 1
ldetEQZ[10,12] 1
ldetEQZ[10,13] 1
ldetEQZ[10,14] 1
ldetEQZ[10,15] 1
ldetEQW[9,0] 1
ldetEQW[9,1] 1
ldetEQW[9,2] 1
ldetEQW[9,3] 1
ldetEQW[9,4] 1
ldetEQW[9,5] 1
ldetEQW[9,6] 1
ldetEQW[9,7] 1
ldetEQW[9,8] 0
ldetEQW[9,9] 0
ldetEQW[9,10] 0
ldetEQW[9,11] 0
ldetEQW[9,12] 0
ldetEQW[9,13] 0
ldetEQW[9,14] 0
ldetEQW[9,15] 0
lDetC[10,0] 1
lDetC[10,1] 1
lDetC[10,2] 0
lDetC[10,3] 0
lFrSB[9,0] 0
lFrSB[9,1] 0
lFrSB[9,2] 0
lFrSB[9,3] 0
lFrSB[9,4] 0
lFrSB[9,5] 1
lFrSB[9,6] 0
lFrSB[9,7] 0
lFrSB[9,8] 0
lFrSB[9,9] 0
lFrSB[9,10] 0
lFrSB[9,11] 0
lFrSB[9,12] 0
lFrSB[9,13] 0
lFrSB[9,14] 1
lFrSB[9,15] 0
lFrSB[10,0] 0
lFrSB[10,1] 0
lFrSB[10,2] 0
lFrSB[10,3] 0
lFrSB[10,4] 0
lFrSB[10,5] 0
lFrSB[10,6] 0
lFrSB[10,7] 0
lFrSB[10,8] 0
lFrSB[10,9] 1
lFrSB[10,10] 0
lFrSB[10,11] 0
lFrSB[10,12] 0
lFrSB[10,13] 0
lFrSB[10,14] 0
lFrSB[10,15] 0
lDiffDetMC[9,0] 1
lDiffDetMC[9,1] 1
lDiffDetMC[9,2] 1
lDiffDetMC[9,3] 1
lDiffDetMC[9,4] 1
lDiffDetMC[9,5] 1
lDiffDetMC[9,6] 1
lDiffDetMC[9,7] 1
lDiffDetMC[9,8] 1
lDiffDetMC[9,9] 1
lDiffDetMC[9,10] 1
lDiffDetMC[9,11] 1
lDiffDetMC[9,12] 1
lDiffDetMC[9,13] 1
lDiffDetMC[9,14] 1
lDiffDetMC[9,15] 1
lDiffDetC[9,0] 1
lDiffDetC[9,1] 1
lDiffDetC[9,2] 1
lDiffDetC[9,3] 1
lFrMC[9,0] 1
lFrMC[9,1] 0
lFrMC[9,2] 1
lFrMC[9,3] 1
lFrMC[9,4] 1
lFrMC[9,5] 1
lFrMC[9,6] 0
lFrMC[9,7] 1
lFrMC[9,8] 0
lFrMC[9,9] 0
lFrMC[9,10] 0
lFrMC[9,11] 0
lFrMC[9,12] 0
lFrMC[9,13] 0
lFrMC[9,14] 0
lFrMC[9,15] 0
rb 40
rf 36
cb 40
cf 36
mb 64
mf 44
mb' 8
mf' 44
cb' 8
cf' 36
Dc 65.25
Qc 154.5
T0 67.25
T1 119.25
T2 119.5
T31 118.5
T32 110.5
T4 120
Tc 120.012001
epsilon 0
